certificates/rado_a15_c216_N54.cnf
c Rad2 upper bound instance: x1 + 15*x2 - x3 = 216, interval [1,54]
p cnf 54 382
1 10 15 0
-1 -10 -15 0
1 16 25 0
-1 -16 -25 0
1 17 40 0
-1 -17 -40 0
2 11 15 0
-2 -11 -15 0
2 16 26 0
-2 -16 -26 0
2 17 41 0
-2 -17 -41 0
3 12 15 0
-3 -12 -15 0
3 16 27 0
-3 -16 -27 0
3 17 42 0
-3 -17 -42 0
4 13 15 0
-4 -13 -15 0
4 16 28 0
-4 -16 -28 0
4 17 43 0
-4 -17 -43 0
5 14 15 0
-5 -14 -15 0
5 16 29 0
-5 -16 -29 0
5 17 44 0
-5 -17 -44 0
6 15 0
-6 -15 0
6 16 30 0
-6 -16 -30 0
6 17 45 0
-6 -17 -45 0
1 7 14 0
-1 -7 -14 0
7 15 16 0
-7 -15 -16 0
7 16 31 0
-7 -16 -31 0
7 17 46 0
-7 -17 -46 0
2 8 14 0
-2 -8 -14 0
8 15 17 0
-8 -15 -17 0
8 16 32 0
-8 -16 -32 0
8 17 47 0
-8 -17 -47 0
3 9 14 0
-3 -9 -14 0
9 15 18 0
-9 -15 -18 0
9 16 33 0
-9 -16 -33 0
9 17 48 0
-9 -17 -48 0
4 10 14 0
-4 -10 -14 0
10 15 19 0
-10 -15 -19 0
10 16 34 0
-10 -16 -34 0
10 17 49 0
-10 -17 -49 0
5 11 14 0
-5 -11 -14 0
11 15 20 0
-11 -15 -20 0
11 16 35 0
-11 -16 -35 0
11 17 50 0
-11 -17 -50 0
6 12 14 0
-6 -12 -14 0
12 15 21 0
-12 -15 -21 0
12 16 36 0
-12 -16 -36 0
12 17 51 0
-12 -17 -51 0
7 13 14 0
-7 -13 -14 0
13 15 22 0
-13 -15 -22 0
13 16 37 0
-13 -16 -37 0
13 17 52 0
-13 -17 -52 0
8 14 0
-8 -14 0
14 15 23 0
-14 -15 -23 0
14 16 38 0
-14 -16 -38 0
14 17 53 0
-14 -17 -53 0
9 14 15 0
-9 -14 -15 0
15 24 0
-15 -24 0
15 16 39 0
-15 -16 -39 0
15 17 54 0
-15 -17 -54 0
10 14 16 0
-10 -14 -16 0
15 16 25 0
-15 -16 -25 0
16 40 0
-16 -40 0
11 14 17 0
-11 -14 -17 0
15 17 26 0
-15 -17 -26 0
16 17 41 0
-16 -17 -41 0
12 14 18 0
-12 -14 -18 0
15 18 27 0
-15 -18 -27 0
16 18 42 0
-16 -18 -42 0
13 14 19 0
-13 -14 -19 0
15 19 28 0
-15 -19 -28 0
16 19 43 0
-16 -19 -43 0
14 20 0
-14 -20 0
15 20 29 0
-15 -20 -29 0
16 20 44 0
-16 -20 -44 0
14 15 21 0
-14 -15 -21 0
15 21 30 0
-15 -21 -30 0
16 21 45 0
-16 -21 -45 0
1 13 22 0
-1 -13 -22 0
14 16 22 0
-14 -16 -22 0
15 22 31 0
-15 -22 -31 0
16 22 46 0
-16 -22 -46 0
2 13 23 0
-2 -13 -23 0
14 17 23 0
-14 -17 -23 0
15 23 32 0
-15 -23 -32 0
16 23 47 0
-16 -23 -47 0
3 13 24 0
-3 -13 -24 0
14 18 24 0
-14 -18 -24 0
15 24 33 0
-15 -24 -33 0
16 24 48 0
-16 -24 -48 0
4 13 25 0
-4 -13 -25 0
14 19 25 0
-14 -19 -25 0
15 25 34 0
-15 -25 -34 0
16 25 49 0
-16 -25 -49 0
5 13 26 0
-5 -13 -26 0
14 20 26 0
-14 -20 -26 0
15 26 35 0
-15 -26 -35 0
16 26 50 0
-16 -26 -50 0
6 13 27 0
-6 -13 -27 0
14 21 27 0
-14 -21 -27 0
15 27 36 0
-15 -27 -36 0
16 27 51 0
-16 -27 -51 0
7 13 28 0
-7 -13 -28 0
14 22 28 0
-14 -22 -28 0
15 28 37 0
-15 -28 -37 0
16 28 52 0
-16 -28 -52 0
8 13 29 0
-8 -13 -29 0
14 23 29 0
-14 -23 -29 0
15 29 38 0
-15 -29 -38 0
16 29 53 0
-16 -29 -53 0
9 13 30 0
-9 -13 -30 0
14 24 30 0
-14 -24 -30 0
15 30 39 0
-15 -30 -39 0
16 30 54 0
-16 -30 -54 0
10 13 31 0
-10 -13 -31 0
14 25 31 0
-14 -25 -31 0
15 31 40 0
-15 -31 -40 0
11 13 32 0
-11 -13 -32 0
14 26 32 0
-14 -26 -32 0
15 32 41 0
-15 -32 -41 0
12 13 33 0
-12 -13 -33 0
14 27 33 0
-14 -27 -33 0
15 33 42 0
-15 -33 -42 0
13 34 0
-13 -34 0
14 28 34 0
-14 -28 -34 0
15 34 43 0
-15 -34 -43 0
13 14 35 0
-13 -14 -35 0
14 29 35 0
-14 -29 -35 0
15 35 44 0
-15 -35 -44 0
13 15 36 0
-13 -15 -36 0
14 30 36 0
-14 -30 -36 0
15 36 45 0
-15 -36 -45 0
1 12 37 0
-1 -12 -37 0
14 31 37 0
-14 -31 -37 0
15 37 46 0
-15 -37 -46 0
2 12 38 0
-2 -12 -38 0
13 17 38 0
-13 -17 -38 0
14 32 38 0
-14 -32 -38 0
15 38 47 0
-15 -38 -47 0
3 12 39 0
-3 -12 -39 0
13 18 39 0
-13 -18 -39 0
14 33 39 0
-14 -33 -39 0
15 39 48 0
-15 -39 -48 0
4 12 40 0
-4 -12 -40 0
13 19 40 0
-13 -19 -40 0
14 34 40 0
-14 -34 -40 0
15 40 49 0
-15 -40 -49 0
5 12 41 0
-5 -12 -41 0
13 20 41 0
-13 -20 -41 0
14 35 41 0
-14 -35 -41 0
15 41 50 0
-15 -41 -50 0
6 12 42 0
-6 -12 -42 0
13 21 42 0
-13 -21 -42 0
14 36 42 0
-14 -36 -42 0
15 42 51 0
-15 -42 -51 0
7 12 43 0
-7 -12 -43 0
13 22 43 0
-13 -22 -43 0
14 37 43 0
-14 -37 -43 0
15 43 52 0
-15 -43 -52 0
8 12 44 0
-8 -12 -44 0
13 23 44 0
-13 -23 -44 0
14 38 44 0
-14 -38 -44 0
15 44 53 0
-15 -44 -53 0
9 12 45 0
-9 -12 -45 0
13 24 45 0
-13 -24 -45 0
14 39 45 0
-14 -39 -45 0
15 45 54 0
-15 -45 -54 0
10 12 46 0
-10 -12 -46 0
13 25 46 0
-13 -25 -46 0
14 40 46 0
-14 -40 -46 0
11 12 47 0
-11 -12 -47 0
13 26 47 0
-13 -26 -47 0
14 41 47 0
-14 -41 -47 0
12 48 0
-12 -48 0
13 27 48 0
-13 -27 -48 0
14 42 48 0
-14 -42 -48 0
12 13 49 0
-12 -13 -49 0
13 28 49 0
-13 -28 -49 0
14 43 49 0
-14 -43 -49 0
12 14 50 0
-12 -14 -50 0
13 29 50 0
-13 -29 -50 0
14 44 50 0
-14 -44 -50 0
12 15 51 0
-12 -15 -51 0
13 30 51 0
-13 -30 -51 0
14 45 51 0
-14 -45 -51 0
1 11 52 0
-1 -11 -52 0
12 16 52 0
-12 -16 -52 0
13 31 52 0
-13 -31 -52 0
14 46 52 0
-14 -46 -52 0
2 11 53 0
-2 -11 -53 0
12 17 53 0
-12 -17 -53 0
13 32 53 0
-13 -32 -53 0
14 47 53 0
-14 -47 -53 0
3 11 54 0
-3 -11 -54 0
12 18 54 0
-12 -18 -54 0
13 33 54 0
-13 -33 -54 0
14 48 54 0
-14 -48 -54 0
