certificates/rado_a15_c216_N54.drat
-48 -54 0
-52 17 -54 0
17 -54 0
d -52 17 -54 0
-54 0
-12 -17 0
-17 0
15 0
-6 0
-24 0
45 0
-36 0
12 0
-48 0
-3 0
-21 0
-51 0
-9 0
14 0
0
